GPU_version/outputs/c109.out
Total number of lines in the file: 110
Total number of nodes including depot: 101
Customer 1: (40, 50), Demand: 0, Time Window: [0, 1236], Service Time: 0
Customer 2: (45, 68), Demand: 10, Time Window: [760, 1120], Service Time: 90
Customer 3: (45, 70), Demand: 30, Time Window: [668, 1028], Service Time: 90
Customer 4: (42, 66), Demand: 10, Time Window: [16, 376], Service Time: 90
Customer 5: (42, 68), Demand: 10, Time Window: [575, 935], Service Time: 90
calling MST kernel
Post Processing Route
Post 2 opt Processing Route
2-opt between 6 and 7 improved cost from 1331.20 to 1330.24
Elapsed time: 0.648602 seconds
Final Route: 
Route #1: 20 21 22 
Route #2: 25 24 27 29 34 
Route #3: 33 32 31 35 36 39 
Route #4: 38 37 23 
Route #5: 10 11 8 9 6 4 1 2 
Route #6: 98 96 99 
Route #7: 95 94 93 92 97 100 91 89 
Route #8: 87 86 90 88 85 
Route #9: 84 83 82 
Route #10: 81 78 76 71 70 73 77 79 80 
Route #11: 3 7 5 75 
Route #12: 13 17 18 19 15 16 14 12 26 
Route #13: 28 30 
Route #14: 67 65 63 62 74 61 72 64 68 
Route #15: 40 41 42 44 45 48 50 51 
Route #16: 46 47 49 52 
Route #17: 43 55 54 53 56 58 60 
Route #18: 57 59 66 69 
Route #19: Total Distance: 1331.2
Final route is valid
